assignment_2/output/held-karp/a20_held-karp.txt
=== 테스트 결과 요약 ===
데이터셋           : a20
사용 알고리즘      : held-karp
결과 파일          : output/a20_held-karp.tour
정답 일치 여부     : 일치함
걸린 시간          : 1389 ms
메모리 사용량      : 249216 KB
성능 상태          : 정상 실행됨

=== 비교 상세 로그 ===
헤더 차이 (라인 4)
GT   : DIMENSION : 20
내꺼 : DIMENSION : 19
TOUR_SECTION 비교 결과: 21 / 21 정확도: 100%
